data/mip_solutions/furman_sahinidis/reduced_transportation/10sp1_cplex.sol
Elapsed time: 0.645792961121
Nodes explored: 844
Upper bound: 10.0
Lower bound: 10.0
y[0,2]=1
y[1,1]=1
y[1,5]=1
y[2,4]=1
y[2,5]=1
y[3,2]=1
y[3,3]=1
y[4,0]=1
y[4,3]=1
y[4,5]=1
q[0,4,2,4]=1120000.0
q[0,4,2,7]=23450.0
q[0,4,2,8]=23450.0
q[0,5,2,5]=305600.0
q[0,5,2,6]=320000.0
q[0,5,2,7]=20600.0
q[0,5,2,8]=20600.0
q[0,6,2,7]=83350.0
q[0,6,2,8]=83350.0
q[1,1,1,1]=11530.0
q[1,1,1,3]=383600.0
q[1,1,1,4]=7100.0
q[1,1,5,8]=397770.0
q[1,2,1,2]=576500.0
q[1,2,1,3]=423500.0
q[1,3,5,8]=1400000.0
q[1,4,1,4]=800000.0
q[2,2,4,2]=527000.0
q[2,2,5,8]=873000.0
q[2,3,4,3]=1844500.0
q[2,3,5,8]=115500.0
q[2,4,4,4]=1844500.0
q[2,4,5,8]=115500.0
q[2,5,4,5]=1054000.0
q[2,5,5,8]=66000.0
q[2,6,5,8]=560000.0
q[2,7,5,8]=1120000.0
q[3,0,2,7]=119800.0
q[3,0,2,8]=119800.0
q[3,0,3,5]=384800.0
q[3,0,3,6]=327600.0
q[3,1,2,7]=119800.0
q[3,1,2,8]=119800.0
q[3,1,3,5]=384800.0
q[3,1,3,6]=327600.0
q[3,2,2,2]=800000.0
q[3,2,2,5]=334400.0
q[3,2,3,4]=55600.0
q[3,3,2,3]=1120000.0
q[3,3,2,7]=273000.0
q[3,3,2,8]=273000.0
q[3,4,3,5]=476000.0
q[4,3,0,3]=144500.0
q[4,3,3,3]=1310400.0
q[4,3,3,4]=897100.0
q[4,4,0,4]=1011500.0
q[4,4,3,4]=1340500.0
q[4,5,0,5]=578000.0
q[4,5,3,5]=64800.0
q[4,5,5,8]=701200.0
q[4,6,0,6]=289000.0
q[4,6,5,8]=383000.0
q[4,7,0,7]=578000.0
q[4,7,5,8]=766000.0
